language Essence 1.3

letting class be function(1 --> 1, 2 --> 2, 3 --> 1, 4 --> 2, 5 --> 1)
letting deck_length be 67
letting deck_width be 41
letting length be function(1 --> 9, 2 --> 1, 3 --> 1, 4 --> 1, 5 --> 1)
letting n_classes be 2
letting n_containers be 5
letting separation be function({1, 2} --> 34)
letting width be function(1 --> 40, 2 --> 30, 3 --> 18, 4 --> 5, 5 --> 12)
